c Mesh Graph
c 2 Rows, 4 columns, capacities in range [0, 10]
p max 10 16
n 1 s
n 10 t
a 1 3 30
a 1 2 30
a 2 4 7
a 2 5 12
a 3 5 4
a 3 4 12
a 4 6 3
a 4 7 17
a 5 7 3
a 5 6 10
a 6 8 10
a 6 9 5
a 7 9 1
a 7 8 14
a 8 10 30
a 9 10 30
